; benchmark generated from python API
(set-info :status unknown)
(declare-datatypes ((RealState 0)) (((RMk1 (rval1 Real)) (RMk2 (rval2 Real)))))
 (assert
 (forall ((|v17:0| Real) )(forall ((|v16:1| Real) )(forall ((|v15:2| Real) )(forall ((|v14:3| Real) )(forall ((|v13:4| Real) )(forall ((|v12:5| Real) )(exists ((|v11:6_st| RealState) (val!9954 Real) )(exists ((|v10:7_st| RealState) (val!9955 Real) )(exists ((|v9:8_st| RealState) (val!9956 Real) )(exists ((|v8:9_st| RealState) (val!9957 Real) )(exists ((|v7:10_st| RealState) (val!9958 Real) )(exists ((|v6:11_st| RealState) (val!9959 Real) )(forall ((|v5:12| Real) )(forall ((|v4:13| Real) )(forall ((|v3:14| Real) )(forall ((|v2:15| Real) )(forall ((|v1:16| Real) )(forall ((|v0:17| Real) )(let ((?x7662 (- 16.0)))
 (let ((?x7845 (rval2 |v10:7_st|)))
 (let ((?x1214 (- 20.0)))
 (let ((?x9353 (* ?x1214 ?x7845)))
 (let ((?x3189 (- 13.0)))
 (let ((?x8150 (* ?x3189 |v0:17|)))
 (let ((?x8160 (rval2 |v6:11_st|)))
 (let ((?x5726 (- 4.0)))
 (let ((?x2520 (* ?x5726 ?x8160)))
 (let ((?x4657 (+ (+ (+ (* 10.0 |v5:12|) (* 2.0 |v15:2|)) (* (- 8.0) |v2:15|)) (* (- 10.0) ?x7845))))
 (let ((?x9451 (- 14.0)))
 (let ((?x2116 (* 17.0 |v13:4|)))
 (let ((?x2814 (* 15.0 |v14:3|)))
 (let ((?x2056 (* 19.0 |v16:1|)))
 (let ((?x4788 (rval2 |v9:8_st|)))
 (let ((?x691 (* 8.0 ?x4788)))
 (let ((?x3111 (+ (+ (+ (+ (* (- 3.0) (rval2 |v7:10_st|)) (* ?x5726 ?x7845)) ?x691) ?x2056) ?x2814)))
 (let (($x3436 (and (<= (+ (+ ?x3111 (* 7.0 (rval2 |v7:10_st|))) ?x2116) ?x9451) (<= (+ (+ (+ ?x4657 ?x2520) ?x8150) ?x9353) ?x7662))))
 (let ((?x5752 (- 9.0)))
 (let ((?x8751 (- 11.0)))
 (let ((?x2014 (* ?x8751 |v1:16|)))
 (let ((?x5929 (- 5.0)))
 (let ((?x5830 (* ?x5929 |v17:0|)))
 (let ((?x5602 (+ (+ (+ (+ (* ?x3189 |v12:5|) (* 12.0 |v5:12|)) (* ?x3189 |v4:13|)) ?x5830) (* (- 8.0) |v15:2|))))
 (let ((?x5172 (- 19.0)))
 (let ((?x2124 (* 19.0 ?x8160)))
 (let ((?x8846 (- 18.0)))
 (let ((?x2944 (* ?x8846 ?x4788)))
 (let ((?x7504 (* 14.0 |v16:1|)))
 (let ((?x7436 (* ?x8751 |v5:12|)))
 (let ((?x8315 (+ (+ (+ (* ?x3189 (rval2 |v8:9_st|)) (* ?x5172 |v17:0|)) (* (- 7.0) ?x7845)) ?x7436)))
 (let (($x268 (and (<= (+ (+ (+ ?x8315 ?x7504) ?x2944) ?x2124) ?x5172) (<= (+ (+ ?x5602 ?x2014) (* 14.0 ?x7845)) ?x5752))))
 (let ((?x9046 (rval2 |v8:9_st|)))
 (let ((?x3017 (* 12.0 ?x9046)))
 (let ((?x2684 (* 8.0 |v16:1|)))
 (let ((?x5458 (- 7.0)))
 (let ((?x2508 (* ?x5458 |v16:1|)))
 (let ((?x5303 (* 9.0 |v1:16|)))
 (let ((?x5750 (+ (+ (+ (* ?x5172 ?x7845) (* (- 1.0) ?x8160)) (* (- 6.0) |v16:1|)) ?x5303)))
 (let ((?x6713 (* 2.0 |v5:12|)))
 (let ((?x9303 (* 16.0 |v12:5|)))
 (let ((?x2862 (* ?x7662 |v1:16|)))
 (let ((?x7112 (rval2 |v11:6_st|)))
 (let ((?x2302 (* 12.0 ?x7112)))
 (let ((?x3398 (+ (+ (+ (+ (* (- 3.0) ?x7845) (* (- 17.0) |v16:1|)) ?x2302) ?x2862) (* ?x7662 ?x4788))))
 (let (($x8220 (or (<= (+ (+ ?x3398 ?x9303) ?x6713) 18.0) (<= (+ (+ (+ ?x5750 ?x2508) ?x2684) ?x3017) 6.0))))
 (let ((?x4472 (* 7.0 |v2:15|)))
 (let ((?x8084 (* 10.0 ?x9046)))
 (let ((?x5640 (* 8.0 |v15:2|)))
 (let ((?x7174 (* ?x3189 ?x9046)))
 (let ((?x4633 (+ (+ (+ (+ (* (- 15.0) |v5:12|) (* ?x7662 |v13:4|)) (* 5.0 ?x4788)) ?x7174) ?x5640)))
 (let ((?x6240 (* 10.0 |v17:0|)))
 (let ((?x6651 (* 0.0 |v15:2|)))
 (let ((?x8837 (* ?x5752 |v2:15|)))
 (let ((?x4292 (* 15.0 ?x4788)))
 (let ((?x5655 (+ (+ (+ (+ (* ?x5726 ?x7845) (* ?x9451 |v16:1|)) (* 7.0 |v13:4|)) ?x4292) ?x8837)))
 (let ((?x6528 (rval2 |v7:10_st|)))
 (let ((?x5128 (* 10.0 ?x6528)))
 (let ((?x1515 (- 2.0)))
 (let ((?x2339 (* ?x1515 |v15:2|)))
 (let ((?x5645 (* 13.0 |v15:2|)))
 (let ((?x3903 (* 16.0 |v3:14|)))
 (let ((?x6987 (+ (+ (+ (+ (* ?x9451 |v16:1|) (* (- 6.0) ?x7112)) (* ?x1515 |v17:0|)) ?x3903) ?x5645)))
 (let (($x5382 (or (<= (+ (+ ?x6987 ?x2339) ?x5128) 13.0) (<= (+ (+ ?x5655 ?x6651) ?x6240) ?x5172))))
 (let ((?x2593 (* 19.0 |v4:13|)))
 (let ((?x3985 (* 7.0 ?x8160)))
 (let ((?x5418 (* 7.0 ?x9046)))
 (let ((?x5619 (+ (+ (+ (+ (+ (* ?x1214 |v14:3|) ?x3903) (* (- 10.0) |v14:3|)) ?x4788) ?x5418) ?x3985)))
 (let ((?x1421 (- 17.0)))
 (let ((?x6210 (* ?x1421 |v17:0|)))
 (let ((?x1240 (* 10.0 |v2:15|)))
 (let ((?x280 (+ (+ (+ (+ (* 12.0 |v17:0|) (* ?x8751 |v2:15|)) ?x2814) (* 2.0 |v1:16|)) ?x1240)))
 (let (($x5675 (or (<= (+ (+ ?x280 (* ?x5458 ?x4788)) ?x6210) ?x5172) (<= (+ ?x5619 ?x2593) 11.0))))
 (let ((?x4562 (* 9.0 ?x9046)))
 (let ((?x154 (* 0.0 ?x7112)))
 (let ((?x2364 (- 3.0)))
 (let ((?x5475 (* ?x2364 ?x7845)))
 (let ((?x8686 (+ (+ (+ (+ (* ?x2364 ?x6528) (* (- 1.0) |v15:2|)) ?x5475) ?x154) (* ?x1214 |v15:2|))))
 (let ((?x1264 (- 15.0)))
 (let ((?x1560 (* ?x1264 |v5:12|)))
 (let ((?x3978 (- 1.0)))
 (let ((?x325 (* ?x3978 ?x7112)))
 (let ((?x4680 (* 0.0 ?x4788)))
 (let ((?x6051 (+ (+ (+ (+ (* ?x3189 |v14:3|) (* 10.0 |v4:13|)) (* ?x2364 |v3:14|)) ?x2116) ?x4680)))
 (let (($x6261 (or (<= (+ (+ ?x6051 ?x325) ?x1560) ?x8846) (<= (+ (+ ?x8686 ?x8160) ?x4562) 0.0))))
 (let ((?x3007 (- 6.0)))
 (let ((?x3076 (* ?x5726 |v16:1|)))
 (let ((?x918 (* 11.0 |v13:4|)))
 (let ((?x2563 (+ (+ (+ (+ (* 2.0 |v0:17|) (* 15.0 ?x6528)) (* 3.0 ?x4788)) ?x3076) ?x918)))
 (let ((?x3281 (* 2.0 |v0:17|)))
 (let ((?x7665 (+ (+ (+ (+ ?x2593 (* 13.0 |v16:1|)) (* (- 8.0) |v3:14|)) (* ?x7662 |v3:14|)) ?x2684)))
 (let (($x2072 (and (<= (+ (+ ?x7665 ?x3281) ?x8150) 19.0) (<= (+ (+ ?x2563 ?x2339) ?x3076) ?x3007))))
 (let (($x8499 (or (or (or $x2072 $x6261) (and $x5675 $x5382)) (and (or (<= (+ (+ ?x4633 ?x8084) ?x4472) ?x1214) $x8220) (and $x268 $x3436)))))
 (let ((?x7318 (* 17.0 |v4:13|)))
 (let ((?x5048 (* 9.0 |v14:3|)))
 (let ((?x3564 (* ?x8751 ?x6528)))
 (let ((?x7824 (+ (+ (+ (* 4.0 |v5:12|) (* ?x8751 |v2:15|)) (* 19.0 ?x7845)) (* (- 10.0) ?x7112))))
 (let ((?x1803 (* 3.0 ?x6528)))
 (let ((?x4821 (+ (+ (+ (* 12.0 ?x7845) (* ?x5929 ?x8160)) (* ?x5172 ?x9046)) (* ?x1515 ?x9046))))
 (let (($x864 (or (<= (+ (+ (+ ?x4821 ?x9046) (* ?x5929 |v12:5|)) ?x1803) ?x9451) (<= (+ (+ (+ ?x7824 ?x3564) ?x5048) ?x7318) ?x5929))))
 (let ((?x9377 (* ?x5458 |v17:0|)))
 (let ((?x3671 (* ?x9451 ?x4788)))
 (let ((?x9214 (* 2.0 |v12:5|)))
 (let ((?x9300 (+ (+ (+ (+ (* ?x1214 |v3:14|) (* 19.0 |v0:17|)) (* 4.0 |v13:4|)) ?x9214) ?x3671)))
 (let ((?x6828 (- 8.0)))
 (let ((?x5200 (* 18.0 |v3:14|)))
 (let ((?x5239 (- 10.0)))
 (let ((?x5137 (* ?x5239 |v14:3|)))
 (let ((?x8404 (* 13.0 |v17:0|)))
 (let ((?x1023 (* ?x3007 |v5:12|)))
 (let ((?x7113 (+ (+ (+ (+ (* ?x3007 ?x7845) (* 7.0 |v16:1|)) (* ?x5726 |v0:17|)) ?x1023) ?x8404)))
 (let (($x634 (or (<= (+ (+ ?x7113 ?x5137) ?x5200) ?x6828) (<= (+ (+ ?x9300 ?x9377) (* ?x8751 ?x4788)) 7.0))))
 (let ((?x625 (* 9.0 ?x8160)))
 (let ((?x2566 (* ?x5726 |v1:16|)))
 (let ((?x7251 (+ (+ (+ (* ?x3007 ?x8160) (* ?x1421 |v4:13|)) (* ?x2364 |v17:0|)) (* ?x5172 ?x8160))))
 (let (($x6065 (and (<= (+ (+ (+ ?x7251 (* 11.0 ?x6528)) ?x2566) ?x625) 17.0) (and $x634 $x864))))
 (let ((?x5559 (* 11.0 |v16:1|)))
 (let ((?x617 (- 12.0)))
 (let ((?x5129 (* ?x617 |v1:16|)))
 (let ((?x6734 (+ (+ (+ (+ (* ?x5752 ?x7845) (* 8.0 |v0:17|)) (* 9.0 |v13:4|)) ?x5129) ?x8150)))
 (let ((?x4794 (* ?x3007 |v16:1|)))
 (let ((?x4789 (* ?x8846 |v17:0|)))
 (let ((?x4703 (* 8.0 ?x7845)))
 (let ((?x6925 (+ (+ (+ (+ (* ?x3007 ?x4788) (* ?x8846 |v5:12|)) (* 3.0 ?x8160)) ?x4703) (* ?x5239 ?x6528))))
 (let (($x2847 (or (<= (+ (+ ?x6925 ?x4789) ?x4794) ?x9451) (<= (+ (+ ?x6734 (* 0.0 ?x8160)) ?x5559) 20.0))))
 (let ((?x5314 (* 2.0 |v2:15|)))
 (let ((?x6844 (* 12.0 |v14:3|)))
 (let ((?x1778 (* ?x9451 ?x9046)))
 (let ((?x153 (+ (+ (+ (+ ?x325 (* 12.0 |v2:15|)) (* 13.0 |v4:13|)) (* ?x1264 ?x8160)) ?x1778)))
 (let ((?x2213 (* ?x9451 |v3:14|)))
 (let ((?x3853 (* 0.0 |v13:4|)))
 (let ((?x9317 (* ?x1515 |v0:17|)))
 (let ((?x247 (+ (+ (+ (+ (* ?x5929 |v14:3|) ?x4789) (* ?x2364 ?x4788)) (* 13.0 ?x9046)) ?x9317)))
 (let (($x189 (and (<= (+ (+ ?x247 ?x3853) ?x2213) 10.0) (<= (+ (+ ?x153 ?x6844) ?x5314) 4.0))))
 (let ((?x2347 (* 4.0 |v13:4|)))
 (let ((?x7416 (* ?x1214 |v0:17|)))
 (let ((?x4761 (* ?x6828 |v1:16|)))
 (let ((?x8956 (+ (+ (+ (+ (* ?x5239 |v13:4|) (* 15.0 |v4:13|)) (* ?x8751 |v16:1|)) ?x4761) ?x7416)))
 (let ((?x92 (* 15.0 |v16:1|)))
 (let ((?x6944 (* ?x3007 |v17:0|)))
 (let ((?x527 (+ (+ (+ (+ (* ?x7662 ?x9046) ?x5137) (* ?x8846 |v3:14|)) (* ?x6828 |v13:4|)) ?x6944)))
 (let (($x4430 (and (<= (+ (+ ?x527 ?x2684) ?x92) ?x617) (<= (+ (+ ?x8956 ?x2347) (* ?x1421 ?x8160)) ?x2364))))
 (let ((?x3530 (* 5.0 ?x7112)))
 (let ((?x5902 (* ?x5726 |v4:13|)))
 (let ((?x4527 (+ (+ (+ (+ (* ?x3189 |v4:13|) (* 3.0 |v14:3|)) ?x2347) (* ?x1421 ?x7112)) ?x5902)))
 (let ((?x3180 (* 14.0 ?x8160)))
 (let ((?x4644 (* 12.0 |v16:1|)))
 (let ((?x4894 (+ (+ (+ (* 6.0 ?x7112) (* 9.0 |v12:5|)) (* 20.0 |v15:2|)) (* ?x3007 |v15:2|))))
 (let (($x9276 (or (<= (+ (+ (+ ?x4894 ?x4644) ?x3180) ?x3853) ?x8751) (<= (+ (+ ?x4527 ?x2520) ?x3530) 10.0))))
 (let ((?x5875 (* ?x5752 |v12:5|)))
 (let ((?x5825 (* 19.0 |v14:3|)))
 (let ((?x9140 (+ (+ (+ (+ ?x5830 (* ?x5752 ?x4788)) (* 19.0 |v15:2|)) (* 8.0 |v4:13|)) ?x5825)))
 (let ((?x6926 (* 5.0 ?x8160)))
 (let ((?x8532 (* 19.0 |v0:17|)))
 (let ((?x4330 (* ?x5929 |v3:14|)))
 (let ((?x8002 (+ (+ (+ (+ (* ?x1264 |v15:2|) (* 13.0 |v12:5|)) (* 3.0 |v4:13|)) ?x4330) ?x8532)))
 (let ((?x6531 (* ?x8751 |v13:4|)))
 (let ((?x7971 (* 3.0 |v0:17|)))
 (let ((?x7510 (+ (+ (+ (+ (* 7.0 |v4:13|) (* ?x617 ?x4788)) (* 12.0 |v3:14|)) ?x154) ?x7971)))
 (let (($x1083 (or (<= (+ (+ ?x7510 ?x6531) ?x2862) 0.0) (<= (+ (+ ?x8002 ?x3671) ?x6926) ?x7662))))
 (let ((?x8682 (* ?x1515 |v17:0|)))
 (let ((?x6746 (* 16.0 |v0:17|)))
 (let ((?x5104 (+ (+ (+ (+ (* 7.0 |v17:0|) ?x2684) (* ?x1421 ?x4788)) (* ?x617 |v16:1|)) ?x6746)))
 (let ((?x7105 (* 15.0 |v17:0|)))
 (let ((?x6870 (+ (+ (+ (* ?x3978 |v13:4|) (* ?x617 |v12:5|)) (* 3.0 ?x7112)) (* ?x8846 ?x9046))))
 (let (($x1928 (or (<= (+ (+ (+ ?x6870 (* ?x5458 |v13:4|)) ?x2508) ?x7105) 20.0) (<= (+ (+ ?x5104 ?x3180) ?x8682) 15.0))))
 (let ((?x5150 (* ?x1421 |v1:16|)))
 (let ((?x1599 (* 11.0 |v1:16|)))
 (let ((?x6802 (+ (+ (+ (+ (* ?x9451 ?x8160) (* ?x1214 |v2:15|)) (* ?x1421 ?x9046)) ?x1599) ?x5150)))
 (let ((?x565 (* 10.0 |v14:3|)))
 (let ((?x5608 (* 9.0 |v3:14|)))
 (let ((?x549 (+ (+ (+ (+ (* ?x5239 |v1:16|) ?x7436) ?x5128) (* 10.0 |v0:17|)) (* ?x1264 |v12:5|))))
 (let (($x7803 (or (<= (+ (+ ?x549 ?x5608) ?x565) ?x2364) (<= (+ (+ ?x6802 (* ?x7662 |v14:3|)) (* ?x5458 ?x8160)) 6.0))))
 (let ((?x2616 (* 16.0 |v5:12|)))
 (let ((?x1813 (* ?x617 |v16:1|)))
 (let ((?x6034 (* 10.0 ?x7845)))
 (let ((?x2001 (+ (+ (+ (* ?x3189 ?x4788) (* 16.0 ?x7112)) (* ?x8846 ?x6528)) (* ?x5929 ?x6528))))
 (let ((?x1587 (* ?x1421 |v13:4|)))
 (let ((?x3504 (+ (+ (+ (+ (+ ?x4680 ?x1778) ?x3530) (* 7.0 |v0:17|)) (* 4.0 ?x8160)) ?x1587)))
 (let (($x2955 (and (<= (+ ?x3504 ?x5875) ?x5172) (<= (+ (+ (+ ?x2001 ?x6034) ?x1813) ?x2616) ?x5458))))
 (let (($x292 (or (or (and $x2955 $x7803) (or $x1928 $x1083)) (<= (+ (+ ?x9140 (* 11.0 |v17:0|)) ?x5875) 10.0))))
 (let ((?x2084 (* 0.0 ?x6528)))
 (let ((?x4592 (* ?x5458 |v14:3|)))
 (let ((?x6476 (+ (+ (+ (* 4.0 ?x9046) (* 15.0 ?x7845)) (* ?x7662 ?x7112)) (* ?x5239 ?x8160))))
 (let ((?x7413 (* 6.0 ?x7112)))
 (let ((?x4464 (* 6.0 |v12:5|)))
 (let ((?x7766 (* 17.0 |v14:3|)))
 (let ((?x4851 (* 19.0 |v3:14|)))
 (let ((?x9247 (+ (+ (* 14.0 |v5:12|) (* 8.0 |v1:16|)) ?x4851)))
 (let (($x8764 (and (<= (+ (+ (+ (+ ?x9247 ?x7766) (* ?x5929 ?x9046)) ?x4464) ?x7413) ?x1214) (<= (+ (+ (+ ?x6476 (* 17.0 |v15:2|)) ?x4592) ?x2084) 11.0))))
 (let ((?x8826 (* ?x3978 |v16:1|)))
 (let ((?x4157 (* ?x1515 |v16:1|)))
 (let ((?x1357 (+ (+ (+ (+ ?x6528 (* 9.0 |v16:1|)) (* 11.0 |v14:3|)) (* 4.0 |v0:17|)) ?x4157)))
 (let ((?x6806 (* ?x5929 |v2:15|)))
 (let ((?x668 (* ?x1264 |v0:17|)))
 (let ((?x3911 (* 7.0 ?x7112)))
 (let ((?x2535 (+ (+ (+ (+ (* ?x8751 |v12:5|) (* 7.0 |v16:1|)) (* 13.0 |v12:5|)) ?x2593) ?x3911)))
 (let (($x9039 (and (<= (+ (+ ?x2535 ?x668) ?x6806) ?x3189) (<= (+ (+ ?x1357 ?x4562) ?x8826) ?x5239))))
 (let ((?x4489 (* ?x1421 ?x4788)))
 (let ((?x5203 (* ?x3978 |v13:4|)))
 (let ((?x3088 (* ?x5172 ?x7845)))
 (let ((?x7431 (+ (+ (+ (+ (* 17.0 ?x6528) (* 19.0 |v5:12|)) (* ?x1421 ?x7112)) ?x1560) ?x3088)))
 (let ((?x4411 (* 4.0 ?x9046)))
 (let ((?x8598 (* 5.0 |v1:16|)))
 (let ((?x7202 (* 6.0 ?x4788)))
 (let ((?x1253 (+ (+ (+ (+ (* ?x5239 |v2:15|) (* ?x5752 |v13:4|)) (* ?x2364 |v15:2|)) ?x7202) ?x2213)))
 (let (($x64 (or (<= (+ (+ ?x1253 ?x8598) ?x4411) ?x5239) (<= (+ (+ ?x7431 ?x5203) ?x4489) ?x5172))))
 (let ((?x1195 (* ?x5929 |v0:17|)))
 (let ((?x8460 (* ?x7662 |v4:13|)))
 (let ((?x8724 (+ (+ (+ (+ ?x5825 (* ?x3978 ?x4788)) (* 0.0 ?x7845)) ?x2862) (* ?x6828 ?x9046))))
 (let ((?x187 (* ?x6828 |v4:13|)))
 (let ((?x5774 (+ (+ (+ (+ (* ?x7662 ?x9046) (* ?x1214 ?x7112)) ?x2814) (* 14.0 |v12:5|)) ?x1599)))
 (let (($x8149 (or (<= (+ (+ ?x5774 ?x187) (* ?x5752 ?x8160)) 13.0) (<= (+ (+ ?x8724 ?x8460) ?x1195) 19.0))))
 (let ((?x2647 (* ?x1214 |v1:16|)))
 (let ((?x1733 (* ?x5239 |v0:17|)))
 (let ((?x455 (* 2.0 |v1:16|)))
 (let ((?x6161 (* 3.0 |v14:3|)))
 (let ((?x2434 (+ (+ (+ (+ (* ?x9451 |v0:17|) (* 10.0 |v0:17|)) (* ?x6828 ?x8160)) ?x6161) ?x455)))
 (let ((?x890 (* ?x7662 |v12:5|)))
 (let ((?x4063 (* 8.0 |v4:13|)))
 (let ((?x8502 (* ?x2364 |v15:2|)))
 (let ((?x5959 (+ (+ (+ (+ (* 6.0 ?x8160) (* 20.0 ?x9046)) (* ?x1264 ?x7845)) ?x8502) ?x4063)))
 (let (($x2858 (and (<= (+ (+ ?x5959 |v0:17|) ?x890) 16.0) (<= (+ (+ ?x2434 ?x1733) ?x2647) 2.0))))
 (let ((?x6666 (* 2.0 |v4:13|)))
 (let ((?x912 (* ?x3978 |v0:17|)))
 (let ((?x526 (+ (+ (+ (+ (* ?x1264 |v13:4|) (* ?x8751 |v15:2|)) ?x9303) (* ?x5239 |v1:16|)) ?x912)))
 (let ((?x800 (* ?x1264 ?x7845)))
 (let ((?x5682 (+ (+ (+ (+ (* ?x1264 |v15:2|) (* ?x1421 |v4:13|)) ?x668) (* 13.0 |v0:17|)) ?x2124)))
 (let (($x9459 (and (<= (+ (+ ?x5682 ?x800) ?x3853) ?x3189) (<= (+ (+ ?x526 ?x625) ?x6666) ?x1515))))
 (let ((?x5424 (* ?x5726 ?x6528)))
 (let ((?x2577 (* ?x3978 |v4:13|)))
 (let ((?x6152 (+ (+ (+ (+ (+ ?x8532 ?x4644) (* ?x3978 |v3:14|)) (* ?x5458 |v5:12|)) ?x2577) ?x5424)))
 (let ((?x8821 (* ?x1264 |v13:4|)))
 (let ((?x5766 (* 16.0 ?x7845)))
 (let ((?x2816 (* 4.0 |v2:15|)))
 (let ((?x748 (* ?x2364 |v12:5|)))
 (let ((?x494 (+ (+ (+ (+ (* ?x617 |v15:2|) (* ?x1264 |v15:2|)) (* 16.0 |v2:15|)) ?x748) ?x2816)))
 (let ((?x8361 (* 13.0 |v0:17|)))
 (let ((?x966 (+ (+ (+ (* 17.0 ?x4788) (* ?x1421 |v5:12|)) (* ?x5752 |v1:16|)) (* 11.0 ?x4788))))
 (let ((?x1392 (* 10.0 |v3:14|)))
 (let ((?x6088 (* ?x3978 ?x9046)))
 (let ((?x4564 (* 13.0 |v12:5|)))
 (let ((?x8535 (+ (+ (+ (+ (* ?x6828 |v13:4|) (* ?x1421 |v15:2|)) (* ?x1214 ?x8160)) ?x4564) ?x6088)))
 (let (($x3478 (or (<= (+ (+ ?x8535 (* ?x617 |v13:4|)) ?x1392) ?x617) (<= (+ (+ (+ ?x966 ?x6926) ?x7845) ?x8361) 15.0))))
 (let (($x147 (or $x3478 (or (<= (+ (+ ?x494 ?x5766) ?x8821) 19.0) (<= (+ ?x6152 |v0:17|) ?x5726)))))
 (let (($x1981 (and (or (and $x147 (or $x9459 $x2858)) (or (or $x8149 $x64) (or $x9039 $x8764))) $x292)))
 (let ((?x8330 (* ?x9451 |v4:13|)))
 (let ((?x8342 (* ?x1214 ?x6528)))
 (let ((?x2218 (+ (+ (+ (+ (* ?x617 |v4:13|) ?x4592) (* 11.0 |v2:15|)) (* 0.0 |v17:0|)) ?x8342)))
 (let ((?x6831 (* ?x8751 |v0:17|)))
 (let ((?x6463 (* 16.0 |v14:3|)))
 (let ((?x3717 (* 11.0 |v4:13|)))
 (let ((?x5764 (+ (+ (+ (+ (* ?x9451 |v16:1|) (* ?x5752 |v5:12|)) (* ?x5929 |v16:1|)) ?x3717) ?x5303)))
 (let (($x4586 (and (<= (+ (+ ?x5764 ?x6463) ?x6831) ?x617) (<= (+ (+ ?x2218 ?x6531) ?x8330) ?x5458))))
 (let ((?x5373 (* ?x9451 |v17:0|)))
 (let ((?x4221 (* 18.0 |v13:4|)))
 (let ((?x4187 (* ?x2364 |v5:12|)))
 (let ((?x9020 (+ (+ (+ (+ (* 8.0 ?x8160) (* ?x3189 ?x7112)) (* ?x8846 ?x6528)) ?x4187) ?x4221)))
 (let ((?x4377 (* 4.0 ?x4788)))
 (let ((?x2586 (+ (+ (+ (+ (+ (* ?x617 |v12:5|) ?x4221) (* 19.0 ?x6528)) ?x3564) ?x4377) ?x6088)))
 (let (($x7136 (or (<= (+ ?x2586 ?x4221) ?x2364) (<= (+ (+ ?x9020 (* 15.0 |v12:5|)) ?x5373) ?x5752))))
 (let ((?x2599 (* 19.0 |v17:0|)))
 (let ((?x9279 (* 3.0 |v2:15|)))
 (let ((?x661 (* 6.0 |v0:17|)))
 (let ((?x1443 (+ (+ (+ (+ (* ?x1421 |v2:15|) (* ?x1214 ?x8160)) (* 20.0 ?x8160)) ?x661) ?x9279)))
 (let ((?x489 (* ?x5239 |v5:12|)))
 (let ((?x794 (* ?x1214 |v3:14|)))
 (let ((?x7849 (+ (+ (+ (+ (* ?x1264 |v16:1|) ?x6651) (* ?x5929 ?x4788)) (* ?x3189 ?x7845)) ?x794)))
 (let ((?x5028 (+ (+ (+ (* 20.0 |v1:16|) (* ?x3978 |v1:16|)) (* ?x2364 ?x6528)) (* ?x6828 ?x7845))))
 (let ((?x5571 (* 16.0 |v1:16|)))
 (let ((?x2163 (* 7.0 |v1:16|)))
 (let ((?x6859 (* 5.0 ?x6528)))
 (let ((?x7634 (+ (+ (+ (* 13.0 ?x8160) (* 11.0 |v12:5|)) (* 9.0 |v5:12|)) (* ?x3189 |v17:0|))))
 (let (($x7531 (or (<= (+ (+ (+ ?x7634 ?x6859) ?x2163) ?x5571) 16.0) (<= (+ (+ (+ ?x5028 ?x7202) (* ?x5752 |v16:1|)) ?x4789) ?x5239))))
 (let ((?x636 (* ?x3189 ?x7112)))
 (let ((?x9289 (+ (+ (+ (+ (+ (* ?x1515 ?x4788) ?x5640) (* 0.0 ?x9046)) ?x7202) ?x636) ?x1803)))
 (let ((?x5362 (* 15.0 ?x8160)))
 (let ((?x3316 (* 5.0 |v16:1|)))
 (let ((?x181 (+ (+ (+ (+ (* 8.0 |v0:17|) (* 13.0 ?x7845)) (* 11.0 |v15:2|)) ?x3316) ?x3853)))
 (let (($x6896 (and (<= (+ (+ ?x181 (* ?x3189 |v13:4|)) ?x5362) ?x6828) (<= (+ ?x9289 ?x8826) ?x5239))))
 (let ((?x1168 (+ (+ (+ (* ?x6828 |v17:0|) (* ?x1264 |v1:16|)) (* 9.0 |v5:12|)) (* ?x5752 |v17:0|))))
 (let ((?x4295 (* 13.0 |v1:16|)))
 (let ((?x5909 (* ?x1515 ?x4788)))
 (let ((?x1690 (* 16.0 ?x6528)))
 (let ((?x4627 (+ (+ (+ (+ (* 8.0 |v13:4|) (* 13.0 |v2:15|)) (* 2.0 |v17:0|)) ?x1690) ?x5909)))
 (let (($x1535 (or (<= (+ (+ ?x4627 ?x4295) ?x6161) ?x3007) (<= (+ (+ (+ ?x1168 (* ?x8751 |v14:3|)) ?x5559) (* ?x9451 |v13:4|)) 3.0))))
 (let (($x8394 (or (and (and $x1535 $x6896) (or $x7531 (<= (+ (+ ?x7849 ?x489) ?x7105) 20.0))) (or (<= (+ (+ ?x1443 ?x2599) ?x2084) ?x8846) (and $x7136 $x4586)))))
 (let ((?x3210 (* ?x3189 |v2:15|)))
 (let ((?x3990 (* 17.0 |v16:1|)))
 (let ((?x9275 (* 10.0 |v1:16|)))
 (let ((?x2007 (+ (+ (+ (+ (+ ?x6746 (* ?x5726 |v15:2|)) (* ?x3189 |v16:1|)) ?x2084) ?x9275) ?x3990)))
 (let ((?x1260 (+ (+ (+ (+ (* 8.0 |v2:15|) (* 18.0 |v14:3|)) (* ?x1421 |v5:12|)) ?x2056) ?x9279)))
 (let ((?x3355 (* ?x1264 |v2:15|)))
 (let ((?x2320 (* ?x3007 ?x4788)))
 (let ((?x1161 (* 9.0 |v12:5|)))
 (let ((?x1013 (+ (+ (+ (+ (* ?x5172 |v12:5|) (* 6.0 ?x6528)) (* ?x9451 ?x7112)) ?x1161) (* 12.0 ?x4788))))
 (let (($x7873 (or (<= (+ (+ ?x1013 ?x2320) ?x3355) ?x7662) (<= (+ (+ ?x1260 (* ?x3978 |v12:5|)) (* 2.0 ?x7845)) 8.0))))
 (let ((?x3086 (* 19.0 ?x4788)))
 (let ((?x5634 (* ?x8846 |v1:16|)))
 (let ((?x2208 (+ (+ (+ (+ (+ ?x6528 (* ?x6828 |v17:0|)) (* ?x5172 ?x9046)) ?x5200) ?x5634) ?x3853)))
 (let ((?x151 (* ?x1214 ?x7112)))
 (let ((?x2977 (+ (+ (+ (+ (+ ?x9275 ?x8460) (* ?x8846 |v14:3|)) (* ?x3189 ?x6528)) ?x151) ?x9377)))
 (let ((?x4197 (+ (+ (+ (* ?x8846 ?x6528) (* ?x3978 |v1:16|)) (* 14.0 |v15:2|)) (* 10.0 |v13:4|))))
 (let (($x8045 (or (<= (+ (+ (+ ?x4197 ?x6531) ?x6210) ?x3717) ?x617) (and (and (<= (+ ?x2977 ?x7504) ?x5458) (<= (+ ?x2208 ?x3086) 19.0)) $x7873))))
 (let ((?x6175 (* ?x7662 ?x7845)))
 (let ((?x8619 (* ?x5172 |v2:15|)))
 (let ((?x3534 (+ (+ (+ (+ (+ (* ?x8846 |v12:5|) ?x5634) ?x5424) ?x6528) (* 9.0 |v15:2|)) ?x8619)))
 (let ((?x1786 (* 16.0 ?x9046)))
 (let ((?x252 (* 17.0 |v5:12|)))
 (let ((?x4141 (+ (+ (+ (+ (+ ?x8342 (* 7.0 |v0:17|)) ?x2816) ?x4703) (* 20.0 |v17:0|)) ?x252)))
 (let ((?x8263 (* ?x8846 |v15:2|)))
 (let ((?x7194 (* 12.0 |v17:0|)))
 (let ((?x5935 (* 3.0 ?x7845)))
 (let ((?x6335 (+ (+ (+ (+ ?x6175 (* 20.0 ?x6528)) (* 14.0 |v3:14|)) (* 12.0 |v1:16|)) ?x5935)))
 (let ((?x520 (* ?x3007 |v4:13|)))
 (let ((?x3002 (* ?x5458 |v1:16|)))
 (let ((?x3820 (+ (+ (+ (+ (* ?x7662 |v0:17|) ?x4789) (* 0.0 |v12:5|)) (* 2.0 |v15:2|)) ?x3002)))
 (let (($x8321 (or (<= (+ (+ ?x3820 ?x520) ?x8263) 1.0) (<= (+ (+ ?x6335 ?x7194) ?x8263) 11.0))))
 (let ((?x7812 (* 4.0 |v16:1|)))
 (let ((?x8743 (* ?x1264 |v4:13|)))
 (let ((?x4595 (+ (+ (+ (+ (* ?x1515 |v14:3|) (* ?x3007 ?x7112)) (* 9.0 |v15:2|)) ?x8743) ?x7812)))
 (let ((?x8206 (* ?x5172 |v1:16|)))
 (let ((?x3206 (+ (+ (+ (+ (* 19.0 |v1:16|) (* ?x3007 ?x8160)) (* ?x5752 |v14:3|)) ?x4472) ?x8206)))
 (let (($x7140 (or (<= (+ (+ ?x3206 ?x890) ?x1587) ?x5172) (<= (+ (+ ?x4595 ?x748) ?x5909) 11.0))))
 (let (($x3128 (and $x7140 (and $x8321 (or (<= (+ ?x4141 ?x1786) 19.0) (<= (+ ?x3534 ?x6175) ?x5929))))))
 (let ((?x28 (* 13.0 ?x6528)))
 (let ((?x7442 (+ (+ (+ (+ (* 17.0 |v1:16|) (* ?x8846 ?x6528)) ?x4377) (* ?x1421 ?x9046)) ?x5634)))
 (let ((?x3634 (* 13.0 |v3:14|)))
 (let ((?x4011 (+ (+ (+ (+ (* ?x617 |v4:13|) ?x4761) (* 3.0 ?x9046)) (* ?x7662 ?x7112)) ?x8361)))
 (let (($x4906 (or (<= (+ (+ ?x4011 ?x3634) ?x8084) ?x1421) (<= (+ (+ ?x7442 ?x28) ?x8619) ?x5239))))
 (let ((?x5408 (* 8.0 |v3:14|)))
 (let ((?x7897 (* 16.0 ?x8160)))
 (let ((?x5010 (+ (+ (+ (+ (+ (* 13.0 |v2:15|) (* 5.0 ?x9046)) ?x6944) ?x3985) ?x7897) ?x5408)))
 (let ((?x3078 (* 11.0 |v0:17|)))
 (let ((?x7989 (* 6.0 |v5:12|)))
 (let ((?x3413 (+ (+ (+ (+ (* 5.0 |v15:2|) (* 3.0 ?x9046)) ?x4157) (* ?x9451 ?x8160)) ?x8502)))
 (let (($x7047 (or (<= (+ (+ ?x3413 ?x7989) ?x3078) 0.0) (<= (+ ?x5010 (* ?x1214 ?x4788)) 2.0))))
 (let ((?x3857 (* ?x3007 ?x7845)))
 (let ((?x7875 (* ?x7662 |v13:4|)))
 (let ((?x552 (* 15.0 |v5:12|)))
 (let ((?x938 (+ (+ (+ (+ (+ (* 9.0 |v4:13|) ?x4292) ?x2944) (* ?x8846 ?x7845)) ?x552) ?x7875)))
 (let ((?x6868 (* 10.0 |v12:5|)))
 (let ((?x8637 (* ?x5752 |v1:16|)))
 (let ((?x5788 (+ (+ (+ (+ (+ (* 11.0 |v2:15|) ?x4562) ?x6651) (* 10.0 ?x7112)) ?x28) ?x8637)))
 (let ((?x6481 (* 14.0 ?x9046)))
 (let ((?x6190 (* ?x5929 |v14:3|)))
 (let ((?x2496 (+ (+ (+ (+ (+ (* 17.0 |v1:16|) ?x661) ?x8460) ?x3281) (* ?x6828 |v13:4|)) ?x6190)))
 (let ((?x3113 (+ (+ (+ (+ (* ?x617 |v12:5|) (* 19.0 ?x7112)) ?x9353) (* 19.0 |v15:2|)) ?x5373)))
 (let (($x8606 (and (and (<= (+ (+ ?x3113 ?x8361) ?x4592) ?x5726) (<= (+ ?x2496 ?x6481) 7.0)) (and (<= (+ ?x5788 ?x6868) ?x1214) (<= (+ ?x938 ?x3857) ?x5929)))))
 (let ((?x3848 (* ?x8846 |v12:5|)))
 (let ((?x7086 (+ (+ (+ (+ (+ (* 3.0 ?x8160) (* ?x5458 |v0:17|)) ?x3002) ?x9279) ?x3848) ?x1690)))
 (let ((?x7019 (* 13.0 |v5:12|)))
 (let ((?x7525 (+ (+ (+ (+ (+ (+ ?x7194 ?x3990) (* ?x617 ?x7112)) ?x9214) ?x1813) ?x7019) ?x6528)))
 (let ((?x2442 (* 17.0 |v17:0|)))
 (let ((?x1419 (* 0.0 |v1:16|)))
 (let ((?x8290 (+ (+ (+ (+ (* 4.0 ?x6528) (* ?x3978 ?x7845)) (* ?x8846 |v16:1|)) ?x1419) ?x3210)))
 (let ((?x7309 (* 20.0 |v0:17|)))
 (let ((?x3314 (* ?x6828 |v0:17|)))
 (let ((?x4665 (+ (+ (+ (+ (+ (+ ?x625 ?x2084) ?x3076) ?x748) (* 3.0 |v5:12|)) ?x3314) ?x7309)))
 (let (($x2551 (or (and (<= ?x4665 ?x6828) (<= (+ (+ ?x8290 (* ?x3007 ?x9046)) ?x2442) 15.0)) (and (<= ?x7525 11.0) (<= (+ ?x7086 (* 0.0 |v14:3|)) 6.0)))))
 (let ((?x4977 (* ?x1515 |v2:15|)))
 (let ((?x7659 (+ (+ (+ (+ (+ (+ ?x7413 ?x6210) ?x3990) (* 0.0 |v12:5|)) ?x5645) ?x4977) (* 6.0 |v15:2|))))
 (let ((?x8249 (* ?x3978 |v15:2|)))
 (let ((?x2212 (+ (+ (+ (+ (* 11.0 ?x7845) (* ?x8846 ?x6528)) (* 12.0 |v12:5|)) ?x3088) ?x6868)))
 (let (($x6822 (and (<= (+ (+ ?x2212 (* 6.0 ?x7845)) ?x8249) 6.0) (<= ?x7659 20.0))))
 (let ((?x4878 (* 6.0 ?x9046)))
 (let ((?x6197 (* ?x5239 |v4:13|)))
 (let ((?x5520 (+ (+ (+ (+ (* 7.0 |v5:12|) (* ?x5929 |v15:2|)) (* 3.0 |v3:14|)) ?x6197) ?x3857)))
 (let ((?x5396 (* ?x3189 ?x4788)))
 (let ((?x5535 (* 2.0 |v3:14|)))
 (let ((?x8679 (+ (+ (+ (+ (* ?x1421 |v14:3|) (* ?x7662 ?x6528)) (* 5.0 ?x7845)) ?x565) ?x7413)))
 (let (($x5481 (or (<= (+ (+ ?x8679 ?x5535) ?x5396) 10.0) (<= (+ (+ ?x5520 (* ?x1421 ?x7845)) ?x4878) ?x5172))))
 (let (($x1583 (or (and (or (or $x5481 $x6822) $x2551) (or $x8606 (or $x7047 $x4906))) (and $x3128 $x8045))))
 (let (($x6332 (or (and $x1583 (and (<= (+ ?x2007 ?x3210) 19.0) $x8394)) (and $x1981 (or (or (or (and $x9276 $x4430) (or $x189 $x2847)) $x6065) $x8499)))))
 (let (($x4184 (not (= |v6:11_st| (RMk1 val!9959)))))
 (let (($x3947 (not (= |v7:10_st| (RMk1 val!9958)))))
 (let (($x3746 (not (= |v8:9_st| (RMk1 val!9957)))))
 (let (($x3505 (not (= |v9:8_st| (RMk1 val!9956)))))
 (let (($x1202 (not (= |v10:7_st| (RMk1 val!9955)))))
 (let (($x2351 (not (= |v11:6_st| (RMk1 val!9954)))))
 (and $x2351 $x1202 $x3505 $x3746 $x3947 $x4184 $x6332))))))))))))))))))))))))))))))))))))))))))))))))))))))))))))))))))))))))))))))))))))))))))))))))))))))))))))))))))))))))))))))))))))))))))))))))))))))))))))))))))))))))))))))))))))))))))))))))))))))))))))))))))))))))))))))))))))))))))))))))))))))))))))))))))))))))))))))))))))))))))))))))))))))))))))))))))))))))))))))))))))))))))))))))))))))))))))))))))))))))))))))))))))))))))))))
 )
 )
 )
 )
 )
 )
 )
 )
 )
 )
 )
 )
 )
 )
 )
 )
 )
 )
(check-sat)
